<instance format="XCSP3" type="CSP">
  <variables>
    <array id="x" size="[81]"> 0..8 </array>
  </variables>
  <constraints>
    <group>
      <extension>
        <list> %0 %1 </list>
        <conflicts> (0,0)(1,1)(2,2)(3,3)(4,4)(5,5)(6,6)(7,7)(8,8) </conflicts>
      </extension>
      <args> x[0] x[10] </args>
      <args> x[11] x[30] </args>
      <args> x[11] x[43] </args>
      <args> x[11] x[57] </args>
      <args> x[11] x[9] </args>
      <args> x[12] x[15] </args>
      <args> x[12] x[29] </args>
      <args> x[12] x[67] </args>
      <args> x[17] x[7] </args>
      <args> x[16] x[18] </args>
      <args> x[14] x[2] </args>
      <args> x[2] x[45] </args>
      <args> x[2] x[78] </args>
      <args> x[0] x[22] </args>
      <args> x[10] x[22] </args>
      <args> x[22] x[29] </args>
      <args> x[22] x[58] </args>
      <args> x[22] x[67] </args>
      <args> x[23] x[33] </args>
      <args> x[23] x[73] </args>
      <args> x[23] x[80] </args>
      <args> x[24] x[65] </args>
      <args> x[24] x[76] </args>
      <args> x[20] x[25] </args>
      <args> x[28] x[36] </args>
      <args> x[28] x[53] </args>
      <args> x[28] x[70] </args>
      <args> x[10] x[29] </args>
      <args> x[18] x[3] </args>
      <args> x[11] x[31] </args>
      <args> x[26] x[31] </args>
      <args> x[31] x[57] </args>
      <args> x[31] x[9] </args>
      <args> x[27] x[32] </args>
      <args> x[32] x[54] </args>
      <args> x[32] x[61] </args>
      <args> x[32] x[7] </args>
      <args> x[14] x[34] </args>
      <args> x[35] x[3] </args>
      <args> x[35] x[51] </args>
      <args> x[35] x[63] </args>
      <args> x[36] x[53] </args>
      <args> x[14] x[37] </args>
      <args> x[34] x[37] </args>
      <args> x[37] x[45] </args>
      <args> x[37] x[49] </args>
      <args> x[37] x[69] </args>
      <args> x[37] x[78] </args>
      <args> x[25] x[38] </args>
      <args> x[38] x[39] </args>
      <args> x[20] x[39] </args>
      <args> x[33] x[4] </args>
      <args> x[20] x[40] </args>
      <args> x[40] x[79] </args>
      <args> x[42] x[65] </args>
      <args> x[26] x[43] </args>
      <args> x[43] x[57] </args>
      <args> x[43] x[9] </args>
      <args> x[14] x[45] </args>
      <args> x[34] x[45] </args>
      <args> x[45] x[49] </args>
      <args> x[45] x[78] </args>
      <args> x[43] x[46] </args>
      <args> x[46] x[57] </args>
      <args> x[20] x[47] </args>
      <args> x[39] x[47] </args>
      <args> x[17] x[48] </args>
      <args> x[27] x[48] </args>
      <args> x[32] x[48] </args>
      <args> x[48] x[54] </args>
      <args> x[48] x[61] </args>
      <args> x[48] x[7] </args>
      <args> x[14] x[49] </args>
      <args> x[50] x[53] </args>
      <args> x[50] x[75] </args>
      <args> x[16] x[51] </args>
      <args> x[51] x[63] </args>
      <args> x[27] x[52] </args>
      <args> x[32] x[52] </args>
      <args> x[48] x[52] </args>
      <args> x[52] x[54] </args>
      <args> x[52] x[7] </args>
      <args> x[17] x[54] </args>
      <args> x[44] x[56] </args>
      <args> x[26] x[57] </args>
      <args> x[57] x[9] </args>
      <args> x[0] x[58] </args>
      <args> x[10] x[58] </args>
      <args> x[36] x[59] </args>
      <args> x[59] x[74] </args>
      <args> x[59] x[75] </args>
      <args> x[20] x[6] </args>
      <args> x[39] x[6] </args>
      <args> x[40] x[6] </args>
      <args> x[16] x[60] </args>
      <args> x[3] x[60] </args>
      <args> x[51] x[60] </args>
      <args> x[17] x[61] </args>
      <args> x[27] x[61] </args>
      <args> x[55] x[62] </args>
      <args> x[16] x[63] </args>
      <args> x[55] x[64] </args>
      <args> x[16] x[68] </args>
      <args> x[14] x[69] </args>
      <args> x[34] x[69] </args>
      <args> x[69] x[78] </args>
      <args> x[27] x[7] </args>
      <args> x[33] x[73] </args>
      <args> x[56] x[73] </args>
      <args> x[73] x[80] </args>
      <args> x[28] x[74] </args>
      <args> x[70] x[74] </args>
      <args> x[36] x[75] </args>
      <args> x[42] x[76] </args>
      <args> x[55] x[76] </args>
      <args> x[65] x[76] </args>
      <args> x[65] x[77] </args>
      <args> x[49] x[78] </args>
      <args> x[20] x[79] </args>
      <args> x[39] x[79] </args>
      <args> x[33] x[80] </args>
      <args> x[4] x[80] </args>
      <args> x[44] x[80] </args>
      <args> x[56] x[80] </args>
    </group>
    <group>
      <extension>
        <list> %0 %1 </list>
        <conflicts> (0,0)(1,1)(2,2)(3,3)(4,4)(5,5)(6,6)(7,7)(8,8) </conflicts>
      </extension>
      <args> x[0] x[15] </args>
      <args> x[11] x[26] </args>
      <args> x[0] x[12] </args>
      <args> x[10] x[12] </args>
      <args> x[12] x[58] </args>
      <args> x[10] x[15] </args>
      <args> x[17] x[27] </args>
      <args> x[2] x[34] </args>
      <args> x[2] x[49] </args>
      <args> x[12] x[22] </args>
      <args> x[15] x[22] </args>
      <args> x[21] x[23] </args>
      <args> x[23] x[4] </args>
      <args> x[23] x[44] </args>
      <args> x[23] x[56] </args>
      <args> x[24] x[42] </args>
      <args> x[24] x[55] </args>
      <args> x[25] x[39] </args>
      <args> x[25] x[8] </args>
      <args> x[0] x[29] </args>
      <args> x[15] x[29] </args>
      <args> x[29] x[58] </args>
      <args> x[16] x[3] </args>
      <args> x[3] x[63] </args>
      <args> x[26] x[30] </args>
      <args> x[30] x[31] </args>
      <args> x[31] x[43] </args>
      <args> x[17] x[32] </args>
      <args> x[21] x[33] </args>
      <args> x[34] x[49] </args>
      <args> x[34] x[78] </args>
      <args> x[16] x[35] </args>
      <args> x[18] x[35] </args>
      <args> x[35] x[60] </args>
      <args> x[35] x[68] </args>
      <args> x[2] x[37] </args>
      <args> x[20] x[38] </args>
      <args> x[38] x[8] </args>
      <args> x[21] x[4] </args>
      <args> x[44] x[4] </args>
      <args> x[4] x[56] </args>
      <args> x[25] x[40] </args>
      <args> x[38] x[40] </args>
      <args> x[39] x[40] </args>
      <args> x[40] x[47] </args>
      <args> x[40] x[8] </args>
      <args> x[42] x[55] </args>
      <args> x[30] x[43] </args>
      <args> x[21] x[44] </args>
      <args> x[33] x[44] </args>
      <args> x[11] x[46] </args>
      <args> x[26] x[46] </args>
      <args> x[30] x[46] </args>
      <args> x[31] x[46] </args>
      <args> x[46] x[9] </args>
      <args> x[25] x[47] </args>
      <args> x[38] x[47] </args>
      <args> x[47] x[79] </args>
      <args> x[47] x[8] </args>
      <args> x[28] x[50] </args>
      <args> x[36] x[50] </args>
      <args> x[50] x[59] </args>
      <args> x[50] x[70] </args>
      <args> x[50] x[74] </args>
      <args> x[18] x[51] </args>
      <args> x[3] x[51] </args>
      <args> x[17] x[52] </args>
      <args> x[52] x[61] </args>
      <args> x[27] x[54] </args>
      <args> x[54] x[7] </args>
      <args> x[55] x[65] </args>
      <args> x[21] x[56] </args>
      <args> x[33] x[56] </args>
      <args> x[30] x[57] </args>
      <args> x[15] x[58] </args>
      <args> x[28] x[59] </args>
      <args> x[53] x[59] </args>
      <args> x[59] x[70] </args>
      <args> x[25] x[6] </args>
      <args> x[38] x[6] </args>
      <args> x[47] x[6] </args>
      <args> x[6] x[79] </args>
      <args> x[6] x[8] </args>
      <args> x[18] x[60] </args>
      <args> x[60] x[63] </args>
      <args> x[54] x[61] </args>
      <args> x[61] x[7] </args>
      <args> x[24] x[62] </args>
      <args> x[42] x[62] </args>
      <args> x[62] x[64] </args>
      <args> x[62] x[65] </args>
      <args> x[62] x[76] </args>
      <args> x[62] x[77] </args>
      <args> x[18] x[63] </args>
      <args> x[24] x[64] </args>
      <args> x[42] x[64] </args>
      <args> x[64] x[65] </args>
      <args> x[64] x[76] </args>
      <args> x[64] x[77] </args>
      <args> x[0] x[67] </args>
      <args> x[10] x[67] </args>
      <args> x[15] x[67] </args>
      <args> x[29] x[67] </args>
      <args> x[58] x[67] </args>
      <args> x[18] x[68] </args>
      <args> x[3] x[68] </args>
      <args> x[51] x[68] </args>
      <args> x[60] x[68] </args>
      <args> x[63] x[68] </args>
      <args> x[2] x[69] </args>
      <args> x[45] x[69] </args>
      <args> x[49] x[69] </args>
      <args> x[36] x[70] </args>
      <args> x[53] x[70] </args>
      <args> x[21] x[73] </args>
      <args> x[4] x[73] </args>
      <args> x[44] x[73] </args>
      <args> x[36] x[74] </args>
      <args> x[53] x[74] </args>
      <args> x[74] x[75] </args>
      <args> x[28] x[75] </args>
      <args> x[53] x[75] </args>
      <args> x[70] x[75] </args>
      <args> x[24] x[77] </args>
      <args> x[42] x[77] </args>
      <args> x[55] x[77] </args>
      <args> x[76] x[77] </args>
      <args> x[14] x[78] </args>
      <args> x[25] x[79] </args>
      <args> x[38] x[79] </args>
      <args> x[79] x[8] </args>
      <args> x[20] x[8] </args>
      <args> x[39] x[8] </args>
      <args> x[21] x[80] </args>
      <args> x[26] x[9] </args>
      <args> x[30] x[9] </args>
    </group>
    <group>
      <extension>
        <list> %0 %1 </list>
        <conflicts> (0,0)(1,0)(0,1)(1,1)(2,2)(3,3)(4,4)(5,5)(6,6)(7,7)(8,8) </conflicts>
      </extension>
      <args> x[1] x[21] </args>
      <args> x[1] x[23] </args>
      <args> x[1] x[33] </args>
      <args> x[1] x[4] </args>
      <args> x[1] x[44] </args>
      <args> x[1] x[56] </args>
      <args> x[1] x[73] </args>
      <args> x[1] x[80] </args>
      <args> x[13] x[24] </args>
      <args> x[13] x[42] </args>
      <args> x[13] x[55] </args>
      <args> x[13] x[62] </args>
      <args> x[13] x[64] </args>
      <args> x[13] x[65] </args>
      <args> x[13] x[76] </args>
      <args> x[13] x[77] </args>
      <args> x[16] x[19] </args>
      <args> x[18] x[19] </args>
      <args> x[19] x[3] </args>
      <args> x[19] x[35] </args>
      <args> x[19] x[51] </args>
      <args> x[19] x[60] </args>
      <args> x[19] x[63] </args>
      <args> x[19] x[68] </args>
      <args> x[14] x[41] </args>
      <args> x[2] x[41] </args>
      <args> x[34] x[41] </args>
      <args> x[37] x[41] </args>
      <args> x[41] x[45] </args>
      <args> x[41] x[49] </args>
      <args> x[41] x[69] </args>
      <args> x[41] x[78] </args>
      <args> x[28] x[5] </args>
      <args> x[36] x[5] </args>
      <args> x[50] x[5] </args>
      <args> x[53] x[5] </args>
      <args> x[59] x[5] </args>
      <args> x[5] x[70] </args>
      <args> x[5] x[74] </args>
      <args> x[5] x[75] </args>
      <args> x[0] x[66] </args>
      <args> x[10] x[66] </args>
      <args> x[12] x[66] </args>
      <args> x[15] x[66] </args>
      <args> x[22] x[66] </args>
      <args> x[29] x[66] </args>
      <args> x[58] x[66] </args>
      <args> x[66] x[67] </args>
      <args> x[17] x[71] </args>
      <args> x[27] x[71] </args>
      <args> x[32] x[71] </args>
      <args> x[48] x[71] </args>
      <args> x[52] x[71] </args>
      <args> x[54] x[71] </args>
      <args> x[61] x[71] </args>
      <args> x[71] x[7] </args>
      <args> x[11] x[72] </args>
      <args> x[26] x[72] </args>
      <args> x[30] x[72] </args>
      <args> x[31] x[72] </args>
      <args> x[43] x[72] </args>
      <args> x[46] x[72] </args>
      <args> x[57] x[72] </args>
      <args> x[72] x[9] </args>
    </group>
    <group>
      <extension>
        <list> %0 %1 </list>
        <supports> (0,0)(1,1)(2,2)(3,3)(4,4)(5,5)(6,6)(7,7)(8,8) </supports>
      </extension>
      <args> x[13] x[25] </args>
      <args> x[38] x[5] </args>
      <args> x[39] x[72] </args>
      <args> x[1] x[40] </args>
      <args> x[41] x[47] </args>
      <args> x[6] x[71] </args>
      <args> x[19] x[79] </args>
      <args> x[66] x[8] </args>
    </group>
  </constraints>
</instance>
